decision_x1=[0,7];
decision_x2=[0,7];
decision_x3=[0,7];
decision_x4=[0,7];
decision_x5=[0,7];
decision_x6=[0,7];
decision_x7=[0,7];
decision_x8=[0,7];
decision_x9=[0,7];
decision_x10=[0,7];
decision_x11=[0,7];
decision_x12=[0,7];
decision_x13=[0,7];
decision_x14=[0,7];
decision_x15=[0,7];
decision_x16=[0,7];
decision_x17=[0,7];
decision_x18=[0,7];
decision_x19=[0,7];
decision_x20=[0,7];
random_y1=[0,7];
random_y2=[0,7];
random_y3=[0,7];
random_y4=[0,7];
random_y5=[0,7];
random_y6=[0,7];
random_y7=[0,7];
random_y8=[0,7];
random_y9=[0,7];
constraint_x2_x1=[
0,0,5.8|
0,1,0.43|
0,2,5.4|
0,3,4.7|
0,4,5.5|
0,5,5.2|
0,6,5.4|
0,7,3.4|
1,0,5.3|
1,1,9.2|
1,2,9.3|
1,3,2.5|
1,4,5.2|
1,5,5.5|
1,6,1.5|
1,7,4.7|
2,0,1.6|
2,1,1.3|
2,2,5.2|
2,3,5.8|
2,4,4|
2,5,3.4|
2,6,3.1|
2,7,7.6|
3,0,2.7|
3,1,9.7|
3,2,6.5|
3,3,7.4|
3,4,4|
3,5,6.7|
3,6,7.5|
3,7,8.5|
4,0,0.76|
4,1,3|
4,2,1|
4,3,8.4|
4,4,3.7|
4,5,8.7|
4,6,8.3|
4,7,2.6|
5,0,9.8|
5,1,4.8|
5,2,1.4|
5,3,3.1|
5,4,7.9|
5,5,8.9|
5,6,4.5|
5,7,3.7|
6,0,3|
6,1,5.6|
6,2,5.2|
6,3,4.2|
6,4,10|
6,5,7.8|
6,6,6.1|
6,7,4.9|
7,0,3.8|
7,1,5.7|
7,2,7.3|
7,3,6|
7,4,4.8|
7,5,3.2|
7,6,6.1|
7,7,0.3|
];
constraint_x3_x2=[
0,0,7.3|
0,1,3.5|
0,2,5.1|
0,3,8.8|
0,4,8.2|
0,5,3.9|
0,6,6.5|
0,7,4.1|
1,0,6.2|
1,1,3.6|
1,2,9|
1,3,7.2|
1,4,9.7|
1,5,1.9|
1,6,5.2|
1,7,6.8|
2,0,9.6|
2,1,4.8|
2,2,7|
2,3,7.3|
2,4,7.9|
2,5,0.01|
2,6,9.2|
2,7,4.6|
3,0,6.9|
3,1,3.3|
3,2,10|
3,3,3.8|
3,4,3.9|
3,5,9.2|
3,6,3.9|
3,7,7.7|
4,0,7.9|
4,1,2.4|
4,2,5.6|
4,3,8.3|
4,4,8.3|
4,5,9.6|
4,6,0.77|
4,7,4|
5,0,1.2|
5,1,7.8|
5,2,3.6|
5,3,0.81|
5,4,0.91|
5,5,5|
5,6,3.9|
5,7,4|
6,0,0.48|
6,1,4.5|
6,2,3.7|
6,3,9.8|
6,4,4.8|
6,5,2.1|
6,6,9.5|
6,7,9.6|
7,0,2.5|
7,1,5.5|
7,2,8.8|
7,3,2.3|
7,4,1.3|
7,5,6.4|
7,6,1|
7,7,4.8|
];
constraint_x4_x3=[
0,0,3.8|
0,1,0.41|
0,2,2|
0,3,7.8|
0,4,8.8|
0,5,6.9|
0,6,4.4|
0,7,8.5|
1,0,0.79|
1,1,0.39|
1,2,9.8|
1,3,0.16|
1,4,7.3|
1,5,3.7|
1,6,5.2|
1,7,7.1|
2,0,6.4|
2,1,0.27|
2,2,4.1|
2,3,6.2|
2,4,7.5|
2,5,4.6|
2,6,9.7|
2,7,5.2|
3,0,8.3|
3,1,3.5|
3,2,4.8|
3,3,6.2|
3,4,2|
3,5,5.9|
3,6,0.74|
3,7,8|
4,0,2.8|
4,1,7.9|
4,2,7.1|
4,3,6.7|
4,4,3|
4,5,7.3|
4,6,3.1|
4,7,9.5|
5,0,6.4|
5,1,8.4|
5,2,2.3|
5,3,4.7|
5,4,6.6|
5,5,8.7|
5,6,1.4|
5,7,2.6|
6,0,2.2|
6,1,5.1|
6,2,7.3|
6,3,5|
6,4,2.4|
6,5,7.6|
6,6,7.2|
6,7,0.56|
7,0,3.9|
7,1,9.7|
7,2,4.5|
7,3,9.4|
7,4,2.7|
7,5,7|
7,6,8.8|
7,7,9.2|
];
constraint_x5_x1=[
0,0,8.3|
0,1,6.4|
0,2,4.7|
0,3,1.8|
0,4,5.5|
0,5,6.8|
0,6,4.2|
0,7,4.8|
1,0,3.6|
1,1,0.14|
1,2,1|
1,3,9|
1,4,0.69|
1,5,6.7|
1,6,9.1|
1,7,2.9|
2,0,5.3|
2,1,9.5|
2,2,7.3|
2,3,3.5|
2,4,4.4|
2,5,4.5|
2,6,6.2|
2,7,8.4|
3,0,4.3|
3,1,4.8|
3,2,8.2|
3,3,9.8|
3,4,4.9|
3,5,1.8|
3,6,8.7|
3,7,5.4|
4,0,9.9|
4,1,2.7|
4,2,0.5|
4,3,3.6|
4,4,3.2|
4,5,3.9|
4,6,1.3|
4,7,2.7|
5,0,6.7|
5,1,4|
5,2,2.2|
5,3,8.7|
5,4,5.4|
5,5,2.8|
5,6,8.5|
5,7,8.6|
6,0,9.6|
6,1,2|
6,2,3.2|
6,3,4.5|
6,4,1.5|
6,5,3.9|
6,6,2.2|
6,7,3.7|
7,0,7.8|
7,1,5|
7,2,5.2|
7,3,9.7|
7,4,2.5|
7,5,9.6|
7,6,8.9|
7,7,0.76|
];
constraint_x6_x2=[
0,0,8.3|
0,1,2.2|
0,2,3.9|
0,3,1.6|
0,4,5|
0,5,2.9|
0,6,0.31|
0,7,9.7|
1,0,3.2|
1,1,4.2|
1,2,1|
1,3,6|
1,4,10|
1,5,6.3|
1,6,7.3|
1,7,6.5|
2,0,2.8|
2,1,8.1|
2,2,7.8|
2,3,7.2|
2,4,5.3|
2,5,3.8|
2,6,8.9|
2,7,9.5|
3,0,2.6|
3,1,4.3|
3,2,5.7|
3,3,4.2|
3,4,9.9|
3,5,9.8|
3,6,5|
3,7,2.7|
4,0,0.13|
4,1,7|
4,2,5.4|
4,3,0.71|
4,4,2.1|
4,5,2|
4,6,9.5|
4,7,7|
5,0,2.4|
5,1,7.5|
5,2,9.8|
5,3,7.6|
5,4,8.1|
5,5,0.67|
5,6,3|
5,7,8.5|
6,0,1.3|
6,1,4.2|
6,2,0.17|
6,3,1.1|
6,4,0.48|
6,5,5.7|
6,6,4.3|
6,7,4|
7,0,2.7|
7,1,1.4|
7,2,0.21|
7,3,5.8|
7,4,4.8|
7,5,9.7|
7,6,9.5|
7,7,6.6|
];
constraint_x6_x5=[
0,0,3.4|
0,1,0.36|
0,2,8.9|
0,3,4.2|
0,4,4.2|
0,5,8.2|
0,6,6|
0,7,2.1|
1,0,6.9|
1,1,9|
1,2,5.1|
1,3,9.5|
1,4,7.6|
1,5,6.6|
1,6,8.6|
1,7,8.2|
2,0,1.5|
2,1,6.4|
2,2,1.8|
2,3,3.7|
2,4,4.3|
2,5,3.8|
2,6,9.6|
2,7,1.3|
3,0,2.3|
3,1,9.9|
3,2,9.1|
3,3,3.9|
3,4,2.1|
3,5,4.4|
3,6,6.9|
3,7,3.2|
4,0,5.5|
4,1,7.2|
4,2,4.3|
4,3,8.8|
4,4,3.9|
4,5,1.2|
4,6,7.7|
4,7,3.6|
5,0,9.5|
5,1,4.3|
5,2,1.6|
5,3,3.9|
5,4,6.3|
5,5,5.5|
5,6,1.4|
5,7,1.4|
6,0,8.6|
6,1,4.4|
6,2,1.3|
6,3,3.6|
6,4,2.9|
6,5,8.3|
6,6,3.5|
6,7,5.1|
7,0,9.2|
7,1,7.6|
7,2,4|
7,3,1.9|
7,4,5|
7,5,4.9|
7,6,7.4|
7,7,5.5|
];
constraint_x7_x3=[
0,0,8.8|
0,1,3.4|
0,2,5.6|
0,3,1.6|
0,4,3.7|
0,5,3.5|
0,6,4.1|
0,7,2.5|
1,0,7.1|
1,1,9.1|
1,2,2.2|
1,3,5.4|
1,4,1.7|
1,5,0.74|
1,6,4|
1,7,1.6|
2,0,7.5|
2,1,6.2|
2,2,3.8|
2,3,7.9|
2,4,2.7|
2,5,6.9|
2,6,0.4|
2,7,9.8|
3,0,7.7|
3,1,7.2|
3,2,5.9|
3,3,6.7|
3,4,3.2|
3,5,2.9|
3,6,1.2|
3,7,9.1|
4,0,5.8|
4,1,4.7|
4,2,8.2|
4,3,9.8|
4,4,5.1|
4,5,8.3|
4,6,2.7|
4,7,8.5|
5,0,5.2|
5,1,3.1|
5,2,0.075|
5,3,1.8|
5,4,9.1|
5,5,8.1|
5,6,0.33|
5,7,5.9|
6,0,5.5|
6,1,2.2|
6,2,8.5|
6,3,6.7|
6,4,2.5|
6,5,7.5|
6,6,5.6|
6,7,7|
7,0,9.1|
7,1,6.2|
7,2,5.5|
7,3,0.36|
7,4,2.3|
7,5,9|
7,6,9.5|
7,7,1|
];
constraint_x7_x6=[
0,0,6.8|
0,1,4.2|
0,2,3.2|
0,3,9.5|
0,4,3.6|
0,5,2.6|
0,6,0.13|
0,7,1.3|
1,0,5.5|
1,1,5.5|
1,2,6.2|
1,3,7.1|
1,4,8.4|
1,5,6.4|
1,6,5|
1,7,0.29|
2,0,2.2|
2,1,8.5|
2,2,3.7|
2,3,2.2|
2,4,7.4|
2,5,7|
2,6,1.9|
2,7,9.4|
3,0,6.8|
3,1,9.6|
3,2,7.1|
3,3,8|
3,4,5.7|
3,5,8.2|
3,6,2.4|
3,7,2.4|
4,0,3.8|
4,1,0.31|
4,2,3.5|
4,3,2.1|
4,4,3.2|
4,5,8|
4,6,6.5|
4,7,9.1|
5,0,0.26|
5,1,0.16|
5,2,9.2|
5,3,2.6|
5,4,1.2|
5,5,9.1|
5,6,9.1|
5,7,6.7|
6,0,3.1|
6,1,5.2|
6,2,4.8|
6,3,7.3|
6,4,6.6|
6,5,4.5|
6,6,3.1|
6,7,9.8|
7,0,2.5|
7,1,8.5|
7,2,3.2|
7,3,3.8|
7,4,3.3|
7,5,2.4|
7,6,6.6|
7,7,5.9|
];
constraint_x8_x4=[
0,0,8.5|
0,1,3|
0,2,6.3|
0,3,9.5|
0,4,0.37|
0,5,3.3|
0,6,6.1|
0,7,4.6|
1,0,8.7|
1,1,1.8|
1,2,9.2|
1,3,1.3|
1,4,4.1|
1,5,7.1|
1,6,4.8|
1,7,0.68|
2,0,7.7|
2,1,9|
2,2,0.9|
2,3,5|
2,4,1.9|
2,5,2.1|
2,6,1.3|
2,7,3.8|
3,0,7.4|
3,1,0.26|
3,2,0.0099|
3,3,8.6|
3,4,4.7|
3,5,8.1|
3,6,7.1|
3,7,9.6|
4,0,3.8|
4,1,7.2|
4,2,0.83|
4,3,8.8|
4,4,8.5|
4,5,6|
4,6,5.4|
4,7,5.1|
5,0,2.1|
5,1,0.72|
5,2,7.7|
5,3,3.2|
5,4,3.8|
5,5,4.7|
5,6,3.1|
5,7,6.1|
6,0,8.6|
6,1,5.9|
6,2,3.6|
6,3,7.5|
6,4,8.6|
6,5,5.9|
6,6,4.8|
6,7,7|
7,0,8.3|
7,1,2.1|
7,2,9|
7,3,6.7|
7,4,4.4|
7,5,3.2|
7,6,7.8|
7,7,1.5|
];
constraint_x8_x7=[
0,0,4.2|
0,1,0.57|
0,2,7|
0,3,5|
0,4,5.8|
0,5,2.5|
0,6,3.4|
0,7,0.72|
1,0,6.7|
1,1,1.9|
1,2,7.9|
1,3,1.4|
1,4,5.7|
1,5,6|
1,6,5.4|
1,7,0.95|
2,0,4.1|
2,1,7.6|
2,2,2.6|
2,3,8.1|
2,4,2.1|
2,5,7.5|
2,6,9.4|
2,7,8.4|
3,0,4.6|
3,1,3.2|
3,2,1.9|
3,3,0.5|
3,4,0.064|
3,5,1|
3,6,7|
3,7,1.2|
4,0,9.5|
4,1,4.2|
4,2,5.8|
4,3,0.24|
4,4,6.2|
4,5,2.8|
4,6,5.5|
4,7,4.9|
5,0,2.2|
5,1,5.7|
5,2,3.3|
5,3,0.58|
5,4,4.3|
5,5,0.2|
5,6,1.6|
5,7,3.2|
6,0,5.4|
6,1,7.1|
6,2,3.7|
6,3,5.4|
6,4,7.1|
6,5,0.63|
6,6,7.7|
6,7,7.3|
7,0,0.00019|
7,1,2.5|
7,2,3.9|
7,3,5.8|
7,4,6.7|
7,5,6.4|
7,6,7.3|
7,7,7.5|
];
constraint_x9_x5=[
0,0,2.8|
0,1,7|
0,2,5.9|
0,3,7.2|
0,4,7|
0,5,9.1|
0,6,0.77|
0,7,7.3|
1,0,6.9|
1,1,8|
1,2,5.9|
1,3,4.7|
1,4,1.5|
1,5,8.5|
1,6,5.4|
1,7,5.2|
2,0,1.8|
2,1,9.8|
2,2,9.8|
2,3,2.9|
2,4,8.8|
2,5,4.1|
2,6,2.9|
2,7,9.2|
3,0,9.1|
3,1,3|
3,2,1.6|
3,3,8.7|
3,4,8.7|
3,5,8|
3,6,3.3|
3,7,3.6|
4,0,3.8|
4,1,9.9|
4,2,6.1|
4,3,4.7|
4,4,1.3|
4,5,3.8|
4,6,6.1|
4,7,7.2|
5,0,9.1|
5,1,6.8|
5,2,4.6|
5,3,5|
5,4,5.7|
5,5,7|
5,6,0.96|
5,7,2.7|
6,0,0.73|
6,1,3.7|
6,2,1.7|
6,3,9.7|
6,4,4.3|
6,5,2.7|
6,6,3.6|
6,7,5.2|
7,0,4.9|
7,1,2.1|
7,2,0.87|
7,3,8.5|
7,4,4.4|
7,5,2.2|
7,6,6.9|
7,7,6.3|
];
constraint_x10_x6=[
0,0,4|
0,1,4.1|
0,2,8.4|
0,3,1.7|
0,4,0.31|
0,5,5.7|
0,6,3.7|
0,7,5.6|
1,0,5.2|
1,1,8.8|
1,2,8.7|
1,3,5.2|
1,4,4.4|
1,5,3.8|
1,6,6|
1,7,9.1|
2,0,4|
2,1,1.7|
2,2,1.4|
2,3,6.1|
2,4,9.5|
2,5,7|
2,6,0.76|
2,7,1.4|
3,0,6.2|
3,1,8.6|
3,2,5.1|
3,3,6.2|
3,4,7.9|
3,5,3.6|
3,6,6.9|
3,7,0.69|
4,0,5.9|
4,1,9.3|
4,2,8.9|
4,3,8.4|
4,4,6.4|
4,5,7|
4,6,2.7|
4,7,6.1|
5,0,8.6|
5,1,4|
5,2,4.6|
5,3,4|
5,4,4.9|
5,5,2.3|
5,6,9.1|
5,7,5.1|
6,0,9.1|
6,1,7.6|
6,2,8.8|
6,3,7.5|
6,4,7.5|
6,5,2.1|
6,6,6|
6,7,7.8|
7,0,8.7|
7,1,5.1|
7,2,4.1|
7,3,6.4|
7,4,8.3|
7,5,3.1|
7,6,6.3|
7,7,4.7|
];
constraint_x10_x9=[
0,0,6.5|
0,1,8|
0,2,2.9|
0,3,4.3|
0,4,7.4|
0,5,6.9|
0,6,5.2|
0,7,7.6|
1,0,2.7|
1,1,4|
1,2,6.3|
1,3,6.6|
1,4,3.7|
1,5,6.1|
1,6,5|
1,7,3.7|
2,0,7.8|
2,1,5.3|
2,2,7.2|
2,3,1.4|
2,4,6|
2,5,2.8|
2,6,5.7|
2,7,7.9|
3,0,7.8|
3,1,3.7|
3,2,8.2|
3,3,1.7|
3,4,3.2|
3,5,7.8|
3,6,0.54|
3,7,2.8|
4,0,6.5|
4,1,6.2|
4,2,4.9|
4,3,0.53|
4,4,9.6|
4,5,1.8|
4,6,5.3|
4,7,8.8|
5,0,7.5|
5,1,5.2|
5,2,3.8|
5,3,0.13|
5,4,7.8|
5,5,1.7|
5,6,1.2|
5,7,9.1|
6,0,9.8|
6,1,4.5|
6,2,7.1|
6,3,2.2|
6,4,6.2|
6,5,0.62|
6,6,4.6|
6,7,1.3|
7,0,8|
7,1,2.6|
7,2,0.091|
7,3,2.3|
7,4,9.2|
7,5,9.8|
7,6,0.55|
7,7,9|
];
constraint_x11_x7=[
0,0,6.9|
0,1,7.7|
0,2,0.59|
0,3,1.2|
0,4,7.2|
0,5,8.1|
0,6,9.9|
0,7,4.8|
1,0,1.9|
1,1,6.6|
1,2,8.9|
1,3,5.8|
1,4,9|
1,5,1.8|
1,6,9.7|
1,7,8.6|
2,0,5.4|
2,1,1.8|
2,2,3|
2,3,7.4|
2,4,7.6|
2,5,2.7|
2,6,2.9|
2,7,7.7|
3,0,5|
3,1,2.8|
3,2,1.9|
3,3,6.4|
3,4,4.1|
3,5,3.6|
3,6,8.9|
3,7,6.2|
4,0,2.2|
4,1,8.5|
4,2,0.27|
4,3,9.3|
4,4,1.2|
4,5,2.9|
4,6,7.9|
4,7,7.9|
5,0,9.7|
5,1,5.1|
5,2,8.3|
5,3,2.5|
5,4,9|
5,5,0.84|
5,6,1.1|
5,7,3.3|
6,0,7|
6,1,4.1|
6,2,0.91|
6,3,7.3|
6,4,7.4|
6,5,3.8|
6,6,3.7|
6,7,5.5|
7,0,7.2|
7,1,1.1|
7,2,8.6|
7,3,6.9|
7,4,3.8|
7,5,9.6|
7,6,10|
7,7,4.7|
];
constraint_x11_x10=[
0,0,8.4|
0,1,5.9|
0,2,1.5|
0,3,3.7|
0,4,2.7|
0,5,0.33|
0,6,3.5|
0,7,9.4|
1,0,8.5|
1,1,1.8|
1,2,9.9|
1,3,1.6|
1,4,5.4|
1,5,3.5|
1,6,2.1|
1,7,8.4|
2,0,5.2|
2,1,4.4|
2,2,4.4|
2,3,7.2|
2,4,9.4|
2,5,8.8|
2,6,5.1|
2,7,8.5|
3,0,8.8|
3,1,4.8|
3,2,0.34|
3,3,5|
3,4,9|
3,5,2.2|
3,6,0.38|
3,7,2|
4,0,1.6|
4,1,0.28|
4,2,3|
4,3,6.7|
4,4,8|
4,5,7.4|
4,6,5.1|
4,7,0.62|
5,0,5.1|
5,1,9.2|
5,2,1.4|
5,3,3.6|
5,4,8.5|
5,5,8.4|
5,6,2.8|
5,7,1.2|
6,0,5|
6,1,5.9|
6,2,8.7|
6,3,4.6|
6,4,7.2|
6,5,5.7|
6,6,6.3|
6,7,4.2|
7,0,6.6|
7,1,4.2|
7,2,4|
7,3,5.7|
7,4,5.5|
7,5,3.7|
7,6,0.27|
7,7,7.9|
];
constraint_x12_x8=[
0,0,3.7|
0,1,4.2|
0,2,4.2|
0,3,4.3|
0,4,2.7|
0,5,6.5|
0,6,9.3|
0,7,8.5|
1,0,1.9|
1,1,1.3|
1,2,2|
1,3,7.5|
1,4,0.77|
1,5,8.2|
1,6,2.8|
1,7,8.7|
2,0,0.64|
2,1,7.7|
2,2,8.1|
2,3,4|
2,4,6.6|
2,5,2.7|
2,6,9.1|
2,7,1.8|
3,0,6.6|
3,1,4.4|
3,2,6.9|
3,3,8.8|
3,4,0.82|
3,5,6.5|
3,6,3.1|
3,7,8.8|
4,0,2.3|
4,1,1.9|
4,2,2.3|
4,3,4.6|
4,4,9.3|
4,5,9.7|
4,6,1.3|
4,7,7.9|
5,0,0.47|
5,1,7.8|
5,2,2|
5,3,5.2|
5,4,6.9|
5,5,6.2|
5,6,3|
5,7,0.29|
6,0,4.4|
6,1,8.3|
6,2,6.3|
6,3,7.6|
6,4,3.3|
6,5,0.91|
6,6,7.2|
6,7,4.2|
7,0,2.2|
7,1,7.8|
7,2,5.4|
7,3,4.4|
7,4,4.3|
7,5,1.1|
7,6,2.9|
7,7,9.3|
];
constraint_x12_x11=[
0,0,5.4|
0,1,9.2|
0,2,3.6|
0,3,5.1|
0,4,2.3|
0,5,1.5|
0,6,7.3|
0,7,8.8|
1,0,8.8|
1,1,5.6|
1,2,4|
1,3,0.3|
1,4,7.6|
1,5,6.2|
1,6,0.53|
1,7,1.4|
2,0,7.1|
2,1,5.1|
2,2,4.5|
2,3,0.88|
2,4,1.3|
2,5,8.4|
2,6,3.6|
2,7,7.3|
3,0,3.4|
3,1,8.7|
3,2,5.5|
3,3,9.5|
3,4,7.6|
3,5,4.8|
3,6,0.46|
3,7,1.4|
4,0,1.9|
4,1,2.1|
4,2,1.1|
4,3,3.6|
4,4,5.4|
4,5,2.6|
4,6,5.6|
4,7,6.8|
5,0,4.5|
5,1,8.1|
5,2,6.6|
5,3,8|
5,4,0.75|
5,5,9.1|
5,6,3.4|
5,7,7.5|
6,0,1.2|
6,1,6.1|
6,2,3.8|
6,3,5.6|
6,4,1.2|
6,5,8.3|
6,6,0.74|
6,7,7.7|
7,0,1.2|
7,1,8.1|
7,2,0.69|
7,3,8.1|
7,4,3.8|
7,5,1.7|
7,6,2.3|
7,7,6.5|
];
constraint_x13_x9=[
0,0,3.6|
0,1,8.5|
0,2,7.2|
0,3,3|
0,4,5.5|
0,5,0.93|
0,6,7.1|
0,7,6.6|
1,0,3.5|
1,1,0.79|
1,2,0.81|
1,3,0.75|
1,4,5|
1,5,6.3|
1,6,9.4|
1,7,1.8|
2,0,0.69|
2,1,0.087|
2,2,6.2|
2,3,6.8|
2,4,6.3|
2,5,1.1|
2,6,4.5|
2,7,9.4|
3,0,7.3|
3,1,4|
3,2,8.1|
3,3,7.3|
3,4,1.4|
3,5,2.5|
3,6,5.6|
3,7,6.3|
4,0,7.8|
4,1,6.4|
4,2,1.2|
4,3,4.4|
4,4,2.4|
4,5,6.8|
4,6,9.4|
4,7,4.4|
5,0,0.85|
5,1,8.6|
5,2,3|
5,3,1.8|
5,4,6.7|
5,5,0.7|
5,6,4.5|
5,7,5.6|
6,0,2.1|
6,1,0.15|
6,2,3.4|
6,3,7.7|
6,4,3.3|
6,5,0.42|
6,6,4.4|
6,7,1.2|
7,0,3.4|
7,1,0.096|
7,2,3.5|
7,3,3|
7,4,2.4|
7,5,0.059|
7,6,3.4|
7,7,3.1|
];
constraint_x14_x10=[
0,0,7|
0,1,0.94|
0,2,9.9|
0,3,0.43|
0,4,7.8|
0,5,8.1|
0,6,1.6|
0,7,2.8|
1,0,5.7|
1,1,2.3|
1,2,2.8|
1,3,8.7|
1,4,1.5|
1,5,4.8|
1,6,4.2|
1,7,2|
2,0,4.9|
2,1,3.2|
2,2,7.6|
2,3,7.1|
2,4,7.2|
2,5,9.5|
2,6,2.3|
2,7,5.5|
3,0,7.3|
3,1,1.5|
3,2,3.1|
3,3,8.3|
3,4,3.6|
3,5,9.1|
3,6,10|
3,7,2.3|
4,0,2.7|
4,1,5.4|
4,2,0.46|
4,3,4.1|
4,4,3.4|
4,5,1.9|
4,6,1.1|
4,7,3.9|
5,0,4.1|
5,1,5.8|
5,2,7.7|
5,3,1.9|
5,4,6.6|
5,5,5.2|
5,6,8.5|
5,7,1.5|
6,0,9.8|
6,1,0.23|
6,2,0.97|
6,3,6.1|
6,4,1.7|
6,5,0.86|
6,6,3.2|
6,7,2.8|
7,0,9.1|
7,1,4.6|
7,2,7.2|
7,3,1.3|
7,4,0.23|
7,5,2.6|
7,6,6.2|
7,7,9.9|
];
constraint_x15_x11=[
0,0,7.6|
0,1,3.5|
0,2,2.3|
0,3,9.2|
0,4,9.6|
0,5,8.5|
0,6,7.5|
0,7,5|
1,0,2.9|
1,1,4.4|
1,2,6.9|
1,3,7.7|
1,4,6.3|
1,5,3.3|
1,6,5.2|
1,7,6.1|
2,0,5.9|
2,1,9.8|
2,2,2.4|
2,3,9.4|
2,4,9|
2,5,6.7|
2,6,2.9|
2,7,8.8|
3,0,7.7|
3,1,3.8|
3,2,2.8|
3,3,5.5|
3,4,5.9|
3,5,6.8|
3,6,5.2|
3,7,9|
4,0,0.42|
4,1,5.4|
4,2,1.6|
4,3,0.27|
4,4,7|
4,5,1.5|
4,6,3|
4,7,6.5|
5,0,4.4|
5,1,5.7|
5,2,3|
5,3,9.6|
5,4,2.2|
5,5,9.7|
5,6,2.1|
5,7,2.7|
6,0,7.5|
6,1,3.1|
6,2,9.6|
6,3,5.9|
6,4,1.5|
6,5,3.3|
6,6,7.2|
6,7,8.9|
7,0,6.3|
7,1,10|
7,2,5.5|
7,3,0.45|
7,4,8.9|
7,5,5.3|
7,6,1.6|
7,7,7.2|
];
constraint_x16_x12=[
0,0,7.9|
0,1,4.8|
0,2,2.6|
0,3,2.1|
0,4,3.6|
0,5,7.6|
0,6,8.3|
0,7,9.3|
1,0,8.8|
1,1,7.2|
1,2,1.1|
1,3,1.4|
1,4,9.8|
1,5,9.1|
1,6,7.7|
1,7,2.3|
2,0,6.2|
2,1,0.23|
2,2,0.037|
2,3,8|
2,4,8.3|
2,5,2.8|
2,6,7.4|
2,7,6.1|
3,0,1.6|
3,1,8.3|
3,2,7.7|
3,3,9.2|
3,4,3.6|
3,5,0.4|
3,6,8.7|
3,7,9.8|
4,0,1.6|
4,1,7.7|
4,2,2.7|
4,3,2.4|
4,4,3.9|
4,5,6.4|
4,6,2.2|
4,7,9.7|
5,0,9|
5,1,0.1|
5,2,7.1|
5,3,6.3|
5,4,9.6|
5,5,7.1|
5,6,3.5|
5,7,9.3|
6,0,3.1|
6,1,10|
6,2,1.7|
6,3,5.9|
6,4,1.3|
6,5,6.2|
6,6,4.2|
6,7,2.3|
7,0,0.44|
7,1,7.2|
7,2,7.7|
7,3,9.8|
7,4,6.6|
7,5,3.6|
7,6,7.7|
7,7,9.1|
];
constraint_x17_x13=[
0,0,9.8|
0,1,6.1|
0,2,4|
0,3,2.3|
0,4,7.3|
0,5,3.2|
0,6,3.5|
0,7,9.3|
1,0,9.6|
1,1,3.1|
1,2,3.2|
1,3,8.9|
1,4,5.8|
1,5,6.2|
1,6,1.1|
1,7,4.2|
2,0,2.7|
2,1,2.8|
2,2,0.35|
2,3,1.1|
2,4,6.8|
2,5,9.4|
2,6,8.4|
2,7,2.9|
3,0,4.7|
3,1,6.2|
3,2,9.5|
3,3,6.6|
3,4,7.1|
3,5,9.5|
3,6,2.7|
3,7,9|
4,0,6.7|
4,1,1.6|
4,2,8.6|
4,3,5.1|
4,4,3.6|
4,5,4.3|
4,6,5.7|
4,7,9.1|
5,0,5.7|
5,1,7.2|
5,2,7.5|
5,3,7.7|
5,4,0.88|
5,5,1.1|
5,6,9.2|
5,7,9|
6,0,9.9|
6,1,3.9|
6,2,5.2|
6,3,2.9|
6,4,7.9|
6,5,2.3|
6,6,5.5|
6,7,9.9|
7,0,1.9|
7,1,1.6|
7,2,5.2|
7,3,1.7|
7,4,8.8|
7,5,3.7|
7,6,6.3|
7,7,5.9|
];
constraint_x18_x14=[
0,0,7.4|
0,1,1.1|
0,2,2.2|
0,3,1.5|
0,4,1|
0,5,4.6|
0,6,9.2|
0,7,6.9|
1,0,2|
1,1,8.5|
1,2,6.9|
1,3,6|
1,4,2.1|
1,5,8.7|
1,6,6.6|
1,7,5.5|
2,0,7.7|
2,1,4.5|
2,2,8.9|
2,3,5.9|
2,4,7|
2,5,9.3|
2,6,7.9|
2,7,0.039|
3,0,1.7|
3,1,8.6|
3,2,7.7|
3,3,0.14|
3,4,4.5|
3,5,8|
3,6,4.5|
3,7,3.4|
4,0,6.3|
4,1,9.1|
4,2,4.3|
4,3,6.7|
4,4,7.2|
4,5,5.9|
4,6,8.5|
4,7,8.2|
5,0,7|
5,1,4.2|
5,2,8.9|
5,3,9.5|
5,4,2.9|
5,5,2.3|
5,6,1.8|
5,7,2.7|
6,0,2.9|
6,1,6.7|
6,2,4.1|
6,3,3.1|
6,4,1|
6,5,9.3|
6,6,2.2|
6,7,10|
7,0,8.5|
7,1,1.7|
7,2,7.2|
7,3,1.2|
7,4,0.65|
7,5,4.7|
7,6,6.1|
7,7,1.5|
];
constraint_x19_x15=[
0,0,4.2|
0,1,7.4|
0,2,7.9|
0,3,2.1|
0,4,8.1|
0,5,6|
0,6,9.8|
0,7,0.23|
1,0,1.6|
1,1,2.7|
1,2,9.6|
1,3,2.7|
1,4,3.9|
1,5,4|
1,6,5|
1,7,6.8|
2,0,9.8|
2,1,1.6|
2,2,0.031|
2,3,8.3|
2,4,7|
2,5,5.4|
2,6,2.4|
2,7,7.1|
3,0,9.6|
3,1,9.5|
3,2,1.7|
3,3,1.5|
3,4,7.2|
3,5,0.18|
3,6,2.3|
3,7,10|
4,0,1.3|
4,1,7.1|
4,2,8.9|
4,3,3.6|
4,4,1.1|
4,5,7.5|
4,6,6|
4,7,7.2|
5,0,6.1|
5,1,0.28|
5,2,9.8|
5,3,7.3|
5,4,8.2|
5,5,8.6|
5,6,7.7|
5,7,1.7|
6,0,8.2|
6,1,8.3|
6,2,4|
6,3,0.53|
6,4,4.5|
6,5,5.9|
6,6,0.59|
6,7,0.69|
7,0,0.88|
7,1,0.79|
7,2,1.2|
7,3,0.72|
7,4,2.5|
7,5,5.1|
7,6,5.6|
7,7,8.1|
];
constraint_x20_x16=[
0,0,6.9|
0,1,9.9|
0,2,5.8|
0,3,2.3|
0,4,4.4|
0,5,3.4|
0,6,1.3|
0,7,7.6|
1,0,0.5|
1,1,4.5|
1,2,0.013|
1,3,4|
1,4,1.4|
1,5,1.7|
1,6,6.3|
1,7,7.3|
2,0,1.6|
2,1,8.9|
2,2,3.3|
2,3,0.72|
2,4,6.7|
2,5,3.3|
2,6,6.8|
2,7,4.5|
3,0,2.5|
3,1,8|
3,2,2.9|
3,3,4|
3,4,9.6|
3,5,5.3|
3,6,8|
3,7,5.9|
4,0,6.6|
4,1,4.4|
4,2,3.6|
4,3,7.6|
4,4,8.2|
4,5,7.3|
4,6,6.1|
4,7,8.3|
5,0,1.9|
5,1,0.083|
5,2,1.2|
5,3,6.2|
5,4,9.1|
5,5,4.4|
5,6,8.1|
5,7,9.1|
6,0,8.6|
6,1,2.6|
6,2,3|
6,3,5.9|
6,4,4.9|
6,5,9.1|
6,6,5|
6,7,4.3|
7,0,9.3|
7,1,6.9|
7,2,7.5|
7,3,7.5|
7,4,9.9|
7,5,7.6|
7,6,4.7|
7,7,0.041|
];
constraint_x1_y1=[
0,0,4.8|
0,1,9.4|
0,2,8|
0,3,2.3|
0,4,6.9|
0,5,8.1|
0,6,7.8|
0,7,8.3|
1,0,3.1|
1,1,5.8|
1,2,4.4|
1,3,1.7|
1,4,9.1|
1,5,7.2|
1,6,1.9|
1,7,4.1|
2,0,7.7|
2,1,2.6|
2,2,2.3|
2,3,6.1|
2,4,1.7|
2,5,1.7|
2,6,3|
2,7,2.2|
3,0,2|
3,1,0.68|
3,2,2.6|
3,3,2.1|
3,4,1.4|
3,5,6|
3,6,4.1|
3,7,8.7|
4,0,2.1|
4,1,3.2|
4,2,5.8|
4,3,2.6|
4,4,0.3|
4,5,4|
4,6,1.7|
4,7,2.6|
5,0,5.9|
5,1,8.7|
5,2,0.65|
5,3,1.2|
5,4,0.91|
5,5,4.1|
5,6,7.2|
5,7,3.8|
6,0,1.6|
6,1,7.6|
6,2,9.9|
6,3,6.8|
6,4,5.3|
6,5,9.8|
6,6,3.2|
6,7,5.4|
7,0,1.7|
7,1,5.2|
7,2,4.5|
7,3,9.1|
7,4,0.75|
7,5,6.4|
7,6,6.5|
7,7,5|
];
constraint_x2_y2=[
0,0,7.3|
0,1,2.6|
0,2,0.11|
0,3,5.8|
0,4,7.2|
0,5,10|
0,6,5.7|
0,7,0.76|
1,0,9.7|
1,1,4.8|
1,2,2.2|
1,3,1.1|
1,4,4.9|
1,5,1.6|
1,6,2.2|
1,7,1.4|
2,0,0.42|
2,1,0.92|
2,2,7.5|
2,3,8.9|
2,4,7.5|
2,5,0.5|
2,6,9.3|
2,7,2.1|
3,0,3.4|
3,1,2.6|
3,2,8.3|
3,3,8.2|
3,4,7|
3,5,4.6|
3,6,6.9|
3,7,4.3|
4,0,7|
4,1,7.5|
4,2,3.3|
4,3,1.5|
4,4,8.9|
4,5,8.5|
4,6,1.4|
4,7,2.9|
5,0,4.8|
5,1,1.4|
5,2,2.6|
5,3,4.7|
5,4,7.8|
5,5,1.5|
5,6,1.4|
5,7,4.7|
6,0,6.8|
6,1,1.9|
6,2,7.2|
6,3,5.9|
6,4,7.1|
6,5,2.8|
6,6,6.6|
6,7,3.8|
7,0,7|
7,1,3.9|
7,2,6|
7,3,7.9|
7,4,5.9|
7,5,3.6|
7,6,0.68|
7,7,6.9|
];
constraint_x3_y3=[
0,0,2.8|
0,1,3.7|
0,2,9.2|
0,3,9.6|
0,4,2.9|
0,5,2.4|
0,6,7.5|
0,7,6.9|
1,0,2.9|
1,1,8.9|
1,2,6.9|
1,3,8.1|
1,4,5.4|
1,5,0.0098|
1,6,8.2|
1,7,4.5|
2,0,6.5|
2,1,1.7|
2,2,8.8|
2,3,3.8|
2,4,3.3|
2,5,1.5|
2,6,8.5|
2,7,4.2|
3,0,2.7|
3,1,4.6|
3,2,3.9|
3,3,0.64|
3,4,5.6|
3,5,3.4|
3,6,4.3|
3,7,0.43|
4,0,1.6|
4,1,6.8|
4,2,9.1|
4,3,0.26|
4,4,4.6|
4,5,10|
4,6,0.073|
4,7,9.2|
5,0,5.9|
5,1,8.8|
5,2,2.1|
5,3,8|
5,4,5.4|
5,5,9.6|
5,6,7|
5,7,0.8|
6,0,1.7|
6,1,1.1|
6,2,6.1|
6,3,3.6|
6,4,2.8|
6,5,9.3|
6,6,7.6|
6,7,3.6|
7,0,8.6|
7,1,5.5|
7,2,2.2|
7,3,9.6|
7,4,8.6|
7,5,0.52|
7,6,3|
7,7,9.2|
];
constraint_x4_y4=[
0,0,2.5|
0,1,4.1|
0,2,6.5|
0,3,4.5|
0,4,6.6|
0,5,2.1|
0,6,8.4|
0,7,8.2|
1,0,0.026|
1,1,3.1|
1,2,8.4|
1,3,4|
1,4,3.8|
1,5,2.9|
1,6,3.8|
1,7,8.3|
2,0,3.5|
2,1,8|
2,2,6.7|
2,3,6.2|
2,4,0.47|
2,5,1.9|
2,6,4.4|
2,7,7.6|
3,0,4.4|
3,1,5.5|
3,2,3|
3,3,5.2|
3,4,0.33|
3,5,0.068|
3,6,8.5|
3,7,1.9|
4,0,3.1|
4,1,8.4|
4,2,4.7|
4,3,7.3|
4,4,2.9|
4,5,4|
4,6,0.78|
4,7,1|
5,0,9.6|
5,1,9|
5,2,4|
5,3,5.5|
5,4,6.6|
5,5,6.7|
5,6,6|
5,7,9.4|
6,0,4.1|
6,1,4.8|
6,2,0.65|
6,3,5|
6,4,8.3|
6,5,0.26|
6,6,2.2|
6,7,7.6|
7,0,8.6|
7,1,3.2|
7,2,8.2|
7,3,0.51|
7,4,3.5|
7,5,5|
7,6,5.2|
7,7,7.7|
];
constraint_x5_y5=[
0,0,9.6|
0,1,7.3|
0,2,2.7|
0,3,8.9|
0,4,8.6|
0,5,2.1|
0,6,7.2|
0,7,3.1|
1,0,2|
1,1,9.8|
1,2,9.1|
1,3,3|
1,4,2.6|
1,5,9.9|
1,6,4.9|
1,7,8.5|
2,0,7.1|
2,1,7.7|
2,2,8.2|
2,3,3.1|
2,4,7.9|
2,5,4.6|
2,6,8.8|
2,7,6.7|
3,0,6.4|
3,1,7.8|
3,2,2.8|
3,3,6|
3,4,3.3|
3,5,6.5|
3,6,4.2|
3,7,4.9|
4,0,5.7|
4,1,7.2|
4,2,1.4|
4,3,2|
4,4,2.9|
4,5,3|
4,6,9.4|
4,7,2.5|
5,0,9.1|
5,1,7.7|
5,2,3.3|
5,3,8.1|
5,4,2.6|
5,5,0.48|
5,6,3.7|
5,7,5.1|
6,0,6.3|
6,1,8.6|
6,2,9.1|
6,3,1.6|
6,4,1.9|
6,5,0.56|
6,6,3.9|
6,7,0.087|
7,0,4.4|
7,1,2.2|
7,2,7.7|
7,3,5|
7,4,8.3|
7,5,6.5|
7,6,4.9|
7,7,6.7|
];
constraint_x6_y6=[
0,0,1.4|
0,1,2.1|
0,2,2.5|
0,3,2.3|
0,4,3.6|
0,5,0.043|
0,6,8.6|
0,7,7.6|
1,0,0.14|
1,1,2.6|
1,2,4.7|
1,3,3.9|
1,4,0.068|
1,5,4.8|
1,6,7.2|
1,7,5|
2,0,5.3|
2,1,8.7|
2,2,3.7|
2,3,2.6|
2,4,2.5|
2,5,4.5|
2,6,1.1|
2,7,0.26|
3,0,5.9|
3,1,1.1|
3,2,9.2|
3,3,6.1|
3,4,4.9|
3,5,5.8|
3,6,3|
3,7,4.2|
4,0,2.3|
4,1,1.8|
4,2,4.7|
4,3,8.1|
4,4,4.9|
4,5,7.1|
4,6,8.9|
4,7,0.56|
5,0,7.7|
5,1,5.8|
5,2,5.4|
5,3,6.9|
5,4,1.8|
5,5,2.1|
5,6,0.5|
5,7,0.47|
6,0,1.5|
6,1,7.8|
6,2,3.8|
6,3,9.6|
6,4,5.9|
6,5,9.8|
6,6,3.4|
6,7,9.2|
7,0,7.5|
7,1,9|
7,2,7|
7,3,2.2|
7,4,6.9|
7,5,9|
7,6,8.7|
7,7,3.5|
];
constraint_x7_y7=[
0,0,0.031|
0,1,0.28|
0,2,0.58|
0,3,5.2|
0,4,0.95|
0,5,9.2|
0,6,5|
0,7,6.9|
1,0,6.3|
1,1,6.3|
1,2,0.5|
1,3,4.8|
1,4,2.3|
1,5,1|
1,6,6.1|
1,7,3.8|
2,0,3.1|
2,1,1|
2,2,9|
2,3,6|
2,4,1.5|
2,5,0.091|
2,6,3.6|
2,7,3.2|
3,0,2.7|
3,1,1.9|
3,2,3.4|
3,3,6.6|
3,4,0.92|
3,5,4.8|
3,6,2.7|
3,7,6.3|
4,0,7.4|
4,1,5.9|
4,2,7.1|
4,3,3.1|
4,4,3.7|
4,5,3.6|
4,6,6.4|
4,7,2.6|
5,0,6|
5,1,8.2|
5,2,4.7|
5,3,7.2|
5,4,9.4|
5,5,5.9|
5,6,7|
5,7,1.7|
6,0,7.3|
6,1,3.8|
6,2,2.5|
6,3,6.7|
6,4,3.4|
6,5,5.2|
6,6,9.8|
6,7,6.2|
7,0,6.1|
7,1,1.5|
7,2,4.9|
7,3,7.7|
7,4,4.7|
7,5,5.2|
7,6,5.1|
7,7,7.9|
];
constraint_x8_y8=[
0,0,9.9|
0,1,10|
0,2,6.9|
0,3,3.8|
0,4,2.1|
0,5,7.4|
0,6,8.4|
0,7,9.5|
1,0,0.53|
1,1,0.51|
1,2,2.5|
1,3,1.7|
1,4,6.4|
1,5,6.2|
1,6,8.3|
1,7,2|
2,0,7.8|
2,1,2.6|
2,2,5.4|
2,3,6.3|
2,4,5.8|
2,5,1.6|
2,6,6.8|
2,7,0.55|
3,0,4.3|
3,1,8.1|
3,2,4.3|
3,3,0.43|
3,4,2.9|
3,5,2.5|
3,6,4.1|
3,7,0.98|
4,0,2.3|
4,1,2.6|
4,2,6.3|
4,3,4.2|
4,4,9.7|
4,5,9.2|
4,6,5.1|
4,7,2|
5,0,6.5|
5,1,7.8|
5,2,9.5|
5,3,4.2|
5,4,2.3|
5,5,7.3|
5,6,2.6|
5,7,6.1|
6,0,2.1|
6,1,0.03|
6,2,7.1|
6,3,3.7|
6,4,4.5|
6,5,1.3|
6,6,8.2|
6,7,0.88|
7,0,1.4|
7,1,7|
7,2,7.8|
7,3,1.3|
7,4,0.97|
7,5,3.1|
7,6,6.8|
7,7,7|
];
constraint_x9_y9=[
0,0,8.4|
0,1,4.9|
0,2,5.2|
0,3,4.5|
0,4,3.4|
0,5,4.5|
0,6,2.4|
0,7,6|
1,0,5.2|
1,1,6.8|
1,2,6.6|
1,3,9|
1,4,5.6|
1,5,1.6|
1,6,4|
1,7,2.1|
2,0,9.8|
2,1,6.6|
2,2,9.2|
2,3,5.8|
2,4,1.3|
2,5,6.9|
2,6,7.6|
2,7,0.76|
3,0,0.76|
3,1,8.5|
3,2,5.5|
3,3,7.7|
3,4,1.5|
3,5,1.6|
3,6,7.4|
3,7,9.9|
4,0,8.7|
4,1,3.5|
4,2,1.2|
4,3,9.5|
4,4,7.6|
4,5,6.1|
4,6,0.67|
4,7,7.3|
5,0,0.38|
5,1,4.9|
5,2,1|
5,3,6.3|
5,4,5.4|
5,5,1.3|
5,6,2.6|
5,7,4.9|
6,0,3.2|
6,1,4.9|
6,2,8.5|
6,3,6.6|
6,4,0.028|
6,5,3.3|
6,6,6.1|
6,7,3.9|
7,0,2.1|
7,1,4.7|
7,2,1|
7,3,3|
7,4,5.4|
7,5,6.4|
7,6,4.3|
7,7,9.3|
];
initial_distribution_y1=[0.27,0.15,0.18,0.022,0.021,0.15,0.037,0.18];
initial_distribution_y2=[0.15,0.085,0.11,0.12,0.15,0.13,0.14,0.12];
initial_distribution_y3=[0.22,0.061,0.01,0.14,0.25,0.015,0.15,0.15];
initial_distribution_y4=[0.09,0.13,0.18,0.022,0.13,0.087,0.15,0.21];
initial_distribution_y5=[0.054,0.019,0.11,0.27,0.16,0.15,0.11,0.14];
initial_distribution_y6=[0.16,0.0045,0.19,0.0078,0.17,0.21,0.16,0.093];
initial_distribution_y7=[0.061,0.19,0.18,0.21,0.029,0.098,0.15,0.083];
initial_distribution_y8=[0.16,0.18,0.12,0.058,0.11,0.2,0.064,0.11];
initial_distribution_y9=[0.22,0.13,0.14,0.018,0.16,0.13,0.11,0.09];
transition_y1=[
0.12,0.11,0.079,0.097,0.079,0.094,0.28,0.13|
0.13,0.27,0.1,0.036,0.12,0.024,0.21,0.11|
0.081,0.11,0.056,0.12,0.16,0.17,0.18,0.12|
0.17,0.24,0.19,0.2,0.095,0.025,0.071,0.0058|
0.055,0.14,0.19,0.28,0.076,0.15,0.081,0.03|
0.029,0.21,0.15,0.17,0.2,0.14,0.05,0.05|
0.21,0.19,0.25,0.13,0.012,0.053,0.11,0.039|
0.037,0.035,0.057,0.24,0.17,0.15,0.15,0.17|
];
transition_y2=[
0.13,0.16,0.13,0.1,0.18,0.19,0.078,0.03|
0.28,0.17,0.0099,0.012,0.13,0.011,0.13,0.24|
0.027,0.11,0.16,0.14,0.17,0.14,0.082,0.17|
0.092,0.015,0.22,0.26,0.38,0.017,0.008,0.014|
0.14,0.12,0.073,0.019,0.19,0.22,0.22,0.0091|
0.19,0.22,0.048,0.21,0.16,0.016,0.092,0.071|
0.075,0.15,0.018,0.24,0.029,0.22,0.11,0.16|
0.017,0.22,0.12,0.17,0.21,0.062,0.056,0.15|
];
transition_y3=[
0.17,0.081,0.095,0.22,0.064,0.13,0.11,0.13|
0.11,0.07,0.02,0.18,0.24,0.015,0.15,0.22|
0.16,0.14,0.14,0.1,0.069,0.091,0.06,0.24|
0.042,0.13,0.12,0.064,0.2,0.2,0.075,0.17|
0.089,0.011,0.17,0.21,0.22,0.062,0.092,0.15|
0.23,0.011,0.26,0.14,0.077,0.03,0.2,0.045|
0.022,0.11,0.21,0.029,0.21,0.17,0.093,0.16|
0.16,0.26,0.073,0.057,0.16,0.0063,0.24,0.04|
];
transition_y4=[
0.16,0.25,0.024,0.16,0.064,0.25,0.071,0.015|
0.14,0.093,0.11,0.0086,0.34,0.12,0.06,0.13|
0.13,0.16,0.077,0.1,0.07,0.14,0.16,0.17|
0.11,0.19,0.21,0.13,0.17,0.0086,0.12,0.06|
0.012,0.24,0.18,0.16,0.16,0.12,0.11,0.015|
0.091,0.044,0.045,0.046,0.038,0.31,0.2,0.22|
0.018,0.23,0.13,0.12,0.068,0.18,0.033,0.22|
0.21,0.18,0.096,0.085,0.067,0.095,0.09,0.18|
];
transition_y5=[
0.2,0.091,0.034,0.12,0.081,0.034,0.22,0.22|
0.012,0.043,0.2,0.059,0.2,0.18,0.14,0.17|
0.034,0.18,0.07,0.17,0.034,0.2,0.12,0.19|
0.094,0.18,0.096,0.087,0.13,0.11,0.13,0.17|
0.13,0.12,0.066,0.1,0.24,0.12,0.15,0.061|
0.03,0.061,0.11,0.13,0.13,0.34,0.13,0.066|
0.075,0.047,0.18,0.089,0.18,0.048,0.19,0.19|
0.16,0.13,0.051,0.18,0.068,0.063,0.12,0.22|
];
transition_y6=[
0.21,0.2,0.18,0.11,0.039,0.096,0.068,0.1|
0.014,0.081,0.13,0.4,0.093,0.053,0.21,0.028|
0.008,0.2,0.2,0.017,0.2,0.31,0.066,0.0083|
0.1,0.23,0.16,0.021,0.14,0.035,0.03,0.28|
0.029,0.21,0.22,0.092,0.017,0.32,0.021,0.086|
0.26,0.15,0.069,0.023,0.099,0.13,0.12,0.15|
0.2,0.2,0.062,0.16,0.15,0.15,0.032,0.054|
0.22,0.18,0.1,0.0097,0.11,0.13,0.13,0.12|
];
transition_y7=[
0.094,0.32,0.04,0.32,0.095,0.078,0.039,0.015|
0.043,0.16,0.083,0.12,0.067,0.21,0.11,0.22|
0.14,0.12,0.16,0.084,0.028,0.19,0.15,0.12|
0.15,0.15,0.063,0.03,0.037,0.1,0.25,0.22|
0.21,0.0095,0.24,0.071,0.069,0.13,0.19,0.081|
0.14,0.084,0.0038,0.04,0.17,0.093,0.24,0.23|
0.17,0.11,0.13,0.25,0.027,0.21,0.069,0.023|
0.11,0.087,0.014,0.23,0.21,0.086,0.21,0.064|
];
transition_y8=[
0.15,0.17,0.013,0.15,0.2,0.031,0.083,0.2|
0.2,0.0073,0.054,0.17,0.15,0.23,0.044,0.15|
0.1,0.17,0.043,0.15,0.17,0.14,0.066,0.16|
0.16,0.14,0.14,0.071,0.11,0.18,0.16,0.035|
0.14,0.12,0.17,0.055,0.064,0.22,0.068,0.16|
0.17,0.17,0.099,0.08,0.1,0.032,0.18,0.17|
0.052,0.29,0.073,0.11,0.27,0.019,0.077,0.11|
0.14,0.14,0.19,0.15,0.0079,0.099,0.1,0.18|
];
transition_y9=[
0.12,0.24,0.078,0.095,0.025,0.25,0.16,0.026|
0.22,0.015,0.11,0.08,0.13,0.23,0.2,0.014|
0.19,0.19,0.16,0.12,0.07,0.11,0.11,0.045|
0.032,0.054,0.1,0.034,0.21,0.2,0.19,0.18|
0.096,0.21,0.099,0.019,0.069,0.2,0.18,0.13|
0.074,0.23,0.0056,0.16,0.18,0.033,0.23,0.092|
0.034,0.099,0.09,0.081,0.13,0.25,0.024,0.29|
0.18,0.17,0.16,0.11,0.099,0.12,0.1,0.055|
];
